<number of tasks>
50

<cycle time>
1000

<order strength>
0.896


<task times>
1 91
2 90
3 224
4 54
5 267
6 62
7 96
8 43
9 158
10 174
11 274
12 143
13 89
14 263
15 80
16 172
17 158
18 192
19 24
20 221
21 132
22 32
23 289
24 225
25 216
26 119
27 39
28 158
29 220
30 132
31 227
32 262
33 273
34 120
35 192
36 177
37 204
38 21
39 45
40 224
41 82
42 204
43 97
44 162
45 160
46 247
47 145
48 238
49 64
50 358

<precedence relations>
1,2
1,3
2,4
2,5
2,6
3,4
3,5
3,6
4,7
4,8
4,9
5,7
5,8
5,9
6,7
6,8
6,9
7,10
7,11
7,12
8,10
8,11
8,12
9,10
9,11
9,12
10,14
10,15
11,13
11,14
11,15
12,25
12,27
13,16
13,18
14,17
15,16
15,17
15,18
15,19
16,20
17,20
18,20
19,20
20,21
20,22
21,23
21,24
21,25
22,23
22,24
22,25
23,26
23,27
23,28
23,29
24,26
24,27
24,28
24,29
25,26
25,29
25,32
26,30
27,31
27,32
27,33
28,30
28,32
28,38
29,31
29,33
30,34
30,36
30,40
31,35
31,36
32,41
33,34
33,38
33,39
34,37
35,38
36,37
36,39
37,41
37,42
38,40
39,45
40,44
41,43
41,44
42,45
42,46
43,45
43,46
44,45
44,46
44,47
45,49
46,48
46,49
46,50
47,48
47,49

<end>
